
Gurobi 6.0.4 (win64) logging started 06/13/15 10:22:24

Warning: unknown variable 'kDash_dN' in bounds section
Read LP format model from file C:\MT\repository\VRPTWMS\instances\mip\freight\N8-C_DV10-C_SV50_F18_3_No_1.lp
Reading time = 0.00 seconds
(null): 353 rows, 218 columns, 1467 nonzeros
Optimize a model with 353 rows, 218 columns and 1467 nonzeros
Model has 648 quadratic constraints
WARNING: Only barrier available for SOCP models
Coefficient statistics:
  Matrix range    [1e+00, 1e+02]
  Objective range [6e+00, 1e+03]
  Bounds range    [1e+00, 1e+02]
  RHS range       [1e+00, 1e+02]
Presolve removed 58 rows and 27 columns
Presolve time: 0.06s
Presolved: 1609 rows, 878 columns, 7415 nonzeros
Variable types: 623 continuous, 255 integer (203 binary)
Found heuristic solution: objective 8422.7000000
Optimize a model with 1609 rows, 878 columns and 7415 nonzeros
Coefficient statistics:
  Matrix range    [1e+00, 1e+02]
  Objective range [6e+00, 1e+03]
  Bounds range    [1e+00, 1e+02]
  RHS range       [1e+00, 1e+02]

Concurrent LP optimizer: dual simplex and barrier
Showing barrier log only...

Presolve removed 81 rows and 38 columns
Presolved: 1528 rows, 840 columns, 6961 nonzeros

Root barrier log...

Ordering time: 0.00s

Barrier performed 0 iterations in 0.08 seconds
Barrier solve interrupted - model solved by another algorithm


Solved with dual simplex
Solved in 154 iterations and 0.08 seconds
Optimal objective  7.627330339e+02

Root relaxation: objective 7.627330e+02, 154 iterations, 0.02 seconds

    Nodes    |    Current Node    |     Objective Bounds      |     Work
 Expl Unexpl |  Obj  Depth IntInf | Incumbent    BestBd   Gap | It/Node Time

     0     0  762.73303    0   54 8422.70000  762.73303  90.9%     -    0s
H    0     0                    5326.3600000  762.73303  85.7%     -    0s
     0     0 1177.92878    0   54 5326.36000 1177.92878  77.9%     -    0s
H    0     0                    4324.1000000 1177.92878  72.8%     -    0s
     0     0 1206.43225    0   64 4324.10000 1206.43225  72.1%     -    0s
H    0     0                    3256.0000000 1206.43225  62.9%     -    0s
     0     0 1209.69167    0   32 3256.00000 1209.69167  62.8%     -    0s
     0     0 1209.93105    0   65 3256.00000 1209.93105  62.8%     -    0s
     0     0 1210.10489    0   67 3256.00000 1210.10489  62.8%     -    0s
     0     0 1210.14448    0   70 3256.00000 1210.14448  62.8%     -    0s
     0     0 1210.14448    0   71 3256.00000 1210.14448  62.8%     -    0s
     0     0 1210.14448    0   71 3256.00000 1210.14448  62.8%     -    0s
     0     2 1210.14448    0   71 3256.00000 1210.14448  62.8%     -    0s
*   61    36              20    3246.4300000 1541.62113  52.5%  20.5    0s
* 1056   430              16    3246.0900000 2213.07250  31.8%  30.7    1s
  4017   741 2277.25840   26   52 3246.09000 2232.69914  31.2%  35.7    5s
  6365   489 2249.02300   23   12 3246.09000 2241.22136  31.0%  48.0   10s
  8491   276     cutoff   30      3246.09000 2274.33444  29.9%  57.2   15s

Cutting planes:
  Learned: 1
  Gomory: 2
  Cover: 1
  Implied bound: 1
  Clique: 2
  MIR: 9
  Flow cover: 2
  GUB cover: 3

Explored 9427 nodes (571959 simplex iterations) in 17.12 seconds
Thread count was 2 (of 4 available processors)

Optimal solution found (tolerance 1.00e-04)
Best objective 3.246090000000e+03, best bound 3.246090000000e+03, gap 0.0%
k_c1	10.0
k_c2	3.0
k_c3	10.0
k_c4	3.0
k_c5	4.0
k_c6	5.0
k_c7	7.0
k_c8	10.0
k_dN	-0.0
kDash_c1	5.0
kDash_c2	-0.0
kDash_c3	7.0
kDash_c4	-0.0
kDash_c5	-0.0
kDash_c6	3.0
kDash_c7	5.0
kDash_c8	6.0
kDash_dN	-0.0
o_1	-0.0
o_2	0.0
o_3	-0.0
o_4	-0.0
o_5	-0.0
o_6	0.0
o_7	-0.0
o_8	-0.0
p_1	0.0
p_2	0.0
p_3	0.0
p_4	0.0
p_5	0.0
p_6	0.0
p_7	-0.0
p_8	0.0
phi_c1	17.0
phi_c2	2.000000000000005
phi_c3	15.999999999999995
phi_c4	3.0
phi_c5	3.0
phi_c6	4.0
phi_c7	13.999999999999995
phi_c8	4.000000000000005
phi_d0	18.0
phi_dN	-0.0
pi_c1	-0.0
pi_c2	-0.0
pi_c3	-0.0
pi_c4	-0.0
pi_c5	10.0
pi_c6	-0.0
pi_c7	-0.0
pi_c8	-0.0
pi_dN	-0.0
tauD_c1	25.0
tauD_c2	89.0
tauD_c3	25.0
tauD_c4	65.0
tauD_c5	65.0
tauD_c6	56.0
tauD_c7	35.0
tauD_c8	70.0
tauD_d0	-0.0
tauD_dN	100.0
tauS_c1	88.0
tauS_c2	86.0
tauS_c3	12.0
tauS_c4	82.0
tauS_c5	12.0
tauS_c6	82.0
tauS_c7	84.0
tauS_c8	7.0
tauS_d0	-0.0
tauS_dN	100.0
x_c1_c5	1.0
x_c2_dN	1.0
x_c3_c7	1.0
x_c4_dN	1.0
x_c5_dN	1.0
x_c6_c4	1.0
x_c7_c6	1.0
x_c8_c2	1.0
x_d0_c1	1.0
x_d0_c3	1.0
x_d0_c8	1.0
